w = 38;
n = 19;
measures = [|3, 3,
|3, 4,
|3, 5,
|3, 6,
|3, 7,
|3, 8,
|3, 9,
|3, 10,
|3, 11,
|3, 13,
|4, 3,
|4, 5,
|4, 6,
|4, 8,
|4, 11,
|4, 12,
|4, 15,
|4, 16,
|24, 38,
|];
initial_x = [0, 3, 6, 9, 12, 15, 18, 21, 24, 27, 30, 34, 0, 4, 8, 12, 16, 20, 0];
initial_y = [0, 0, 0, 0, 0, 0, 0, 0, 0, 0, 0, 0, 13, 13, 13, 13, 13, 13, 29];